NAME : LRC1_6_6
TYPE : PDPTW
DIMENSION : 150
EDGE_WEIGHT_TYPE : EXACT_2D
NODE_COORD_SECTION
1 1 0
2 150 0
3 0 0
4 -35 852
5 0 2
6 68 128
7 3 199
8 556 10
9 61 84
10 10 80
11 103 20
12 0 198
13 10 49
14 543 7
15 630 690
16 8 230
17 425 10
18 55 68
19 10 0
20 180 -2
21 309 0
22 11 291
23 519 12
24 203 263
25 13 257
26 208 10
27 57 155
28 10 0
29 26 -20
30 106 0
31 10 123
32 622 17
33 212 272
34 18 89
35 298 10
36 84 231
37 10 0
38 240 -11
39 558 0
40 -20 175
41 0 22
42 123 183
43 23 180
44 113 10
45 240 73
46 10 0
47 265 20
48 0 210
49 20 75
50 527 27
51 159 219
52 28 160
53 105 10
54 289 130
55 10 60
56 255 -20
57 325 0
58 38 337
59 336 32
60 567 627
61 33 115
62 117 10
63 250 228
64 10 590
65 89 -10
66 135 0
67 20 82
68 22 37
69 33 93
70 38 159
71 210 10
72 47 277
73 10 0
74 269 -16
75 377 0
76 -10 208
77 0 42
78 136 196
79 43 74
80 849 10
81 140 140
82 10 0
83 241 -20
84 292 0
85 20 98
86 132 47
87 67 127
88 48 136
89 639 10
90 250 124
91 10 0
92 299 24
93 0 368
94 -40 198
95 0 52
96 118 178
97 53 212
98 224 10
99 259 59
100 10 0
101 104 21
102 0 600
103 20 150
104 265 57
105 614 674
106 58 57
107 256 10
108 232 121
109 10 8
110 132 10
111 0 29
112 -10 356
113 0 62
114 133 193
115 63 143
116 99 10
117 248 41
118 10 140
119 263 30
120 0 277
121 -20 74
122 0 67
123 98 158
124 68 259
125 301 10
126 38 139
127 10 0
128 41 14
129 0 129
130 10 140
131 13 72
132 201 261
133 73 102
134 888 10
135 43 286
136 10 0
137 160 20
138 0 511
139 -10 94
140 0 77
141 188 248
142 78 88
143 679 10
144 122 127
145 10 0
146 63 10
147 0 4
148 16 97
149 509 82
150 625 685
PICKUP_AND_DELIVERY_SECTION
1 0 0 0 0 0 0
2 0 0 0 0 1206 0
3 0 0 0 0 0 125
4 0 0 0 0 10 10
5 0 0 0 0 107 107
6 0 0 0 0 0 0
7 0 0 0 0 -16 -16
8 0 0 0 0 0 0
9 0 0 0 0 318 318
10 0 0 0 0 5 0
11 0 0 0 0 113 113
12 0 0 0 0 143 143
13 0 0 0 0 10 10
14 0 0 0 0 141 141
15 0 0 0 0 575 575
16 0 0 0 0 21 21
17 0 0 0 0 59 0
18 0 0 0 0 128 128
19 0 0 0 0 10 10
20 0 0 0 0 417 417
21 0 0 0 0 159 159
22 0 0 0 0 10 10
23 0 0 0 0 4 4
24 0 0 0 0 0 0
25 0 0 0 0 -10 -10
26 0 0 0 0 0 0
27 0 0 0 0 93 93
28 0 0 0 0 15 15
29 0 0 0 0 610 610
30 0 0 0 0 231 231
31 0 0 0 0 0 0
32 0 0 0 0 132 132
33 0 0 0 0 49 49
34 0 0 0 0 -30 -30
35 0 0 0 0 0 0
36 0 0 0 0 530 530
37 0 0 0 0 20 20
38 0 0 0 0 570 570
39 0 0 0 0 110 110
40 0 0 0 0 10 10
41 0 0 0 0 74 74
42 0 0 0 0 36 36
43 0 0 0 0 19 19
44 0 0 0 0 435 0
45 0 0 0 0 118 118
46 0 0 0 0 25 25
47 0 0 0 0 238 238
48 0 0 0 0 134 134
49 0 0 0 0 10 10
50 0 0 0 0 59 59
51 0 0 0 0 0 0
52 0 0 0 0 -20 -20
53 0 0 0 0 0 0
54 0 0 0 0 314 314
55 0 0 0 0 30 0
56 0 0 0 0 286 286
57 0 0 0 0 234 234
58 0 0 0 0 10 10
59 0 0 0 0 208 208
60 0 0 0 0 535 535
61 0 0 0 0 10 10
62 0 0 0 0 420 0
63 0 0 0 0 762 762
64 0 0 0 0 35 0
65 0 0 0 0 871 871
66 0 0 0 0 105 105
67 0 0 0 0 10 10
68 0 0 0 0 183 183
69 0 0 0 0 0 0
70 0 0 0 0 15 15
71 0 0 0 0 465 0
72 0 0 0 0 163 163
73 0 0 0 0 40 40
74 0 0 0 0 491 491
75 0 0 0 0 212 212
76 0 0 0 0 10 10
77 0 0 0 0 149 149
78 0 0 0 0 0 0
79 0 0 0 0 -10 -10
80 0 0 0 0 0 0
81 0 0 0 0 14 14
82 0 0 0 0 45 45
83 0 0 0 0 716 716
84 0 0 0 0 222 222
85 0 0 0 0 10 10
86 0 0 0 0 124 124
87 0 0 0 0 0 0
88 0 0 0 0 -9 -9
89 0 0 0 0 0 0
90 0 0 0 0 118 118
91 0 0 0 0 50 50
92 0 0 0 0 422 422
93 0 0 0 0 258 258
94 0 0 0 0 10 10
95 0 0 0 0 47 47
96 0 0 0 0 0 0
97 0 0 0 0 -14 -14
98 0 0 0 0 0 0
99 0 0 0 0 171 171
100 0 0 0 0 55 55
101 0 0 0 0 114 114
102 0 0 0 0 77 77
103 0 0 0 0 10 10
104 0 0 0 0 45 45
105 0 0 0 0 272 272
106 0 0 0 0 23 23
107 0 0 0 0 94 0
108 0 0 0 0 562 562
109 0 0 0 0 60 0
110 0 0 0 0 197 197
111 0 0 0 0 18 18
112 0 0 0 0 10 10
113 0 0 0 0 113 113
114 0 0 0 0 0 0
115 0 0 0 0 20 20
116 0 0 0 0 311 0
117 0 0 0 0 454 454
118 0 0 0 0 65 0
119 0 0 0 0 241 241
120 0 0 0 0 109 109
121 0 0 0 0 10 10
122 0 0 0 0 71 71
123 0 0 0 0 343 343
124 0 0 0 0 -20 -20
125 0 0 0 0 0 0
126 0 0 0 0 322 322
127 0 0 0 0 70 70
128 0 0 0 0 389 389
129 0 0 0 0 255 255
130 0 0 0 0 10 10
131 0 0 0 0 122 122
132 0 0 0 0 0 0
133 0 0 0 0 -16 -16
134 0 0 0 0 0 0
135 0 0 0 0 173 173
136 0 0 0 0 75 75
137 0 0 0 0 150 150
138 0 0 0 0 172 172
139 0 0 0 0 10 10
140 0 0 0 0 22 22
141 0 0 0 0 0 0
142 0 0 0 0 -20 -20
143 0 0 0 0 0 0
144 0 0 0 0 0 36
145 0 0 0 0 80 80
146 0 0 0 0 203 203
147 0 0 0 0 53 53
148 0 0 0 0 10 10
149 0 0 0 0 281 281
150 0 0 0 0 152 152
DEPOT_SECTION
1 
-1
EOF
